benchmarks/VRPTW/TSPTW/solution/n40w100.002.txt.solution
1 5 37 9 27 23 25 12 16 13 35 26 40 11 38 34 2 4 3 24 22 29 15 20 8 17 31 33 10 30 19 7 28 18 39 6 32 36 41 14 21 
358
